(set-info :source |printed by MathSAT|)
(declare-fun call__DRAGON_.ite16 () Int)
(declare-fun param_e12 () Bool)
(declare-fun call__DRAGON_.ite11 () Int)
(declare-fun param_e01 () Bool)
(declare-fun param_e03 () Bool)
(declare-fun call__DRAGON_.ite3 () Int)
(declare-fun call__DRAGON_.ite22 () Int)
(declare-fun call__DRAGON_.ite14 () Int)
(declare-fun call__DRAGON_.erreur () Bool)
(declare-fun call__DRAGON_.ite () Bool)
(declare-fun call__DRAGON_.ite29 () Int)
(declare-fun call__DRAGON_.g06 () Bool)
(declare-fun call__DRAGON_.ite49 () Int)
(declare-fun env () Bool)
(declare-fun call__DRAGON_.ite32 () Int)
(declare-fun call__DRAGON_.ite37 () Int)
(declare-fun call__DRAGON_.ite41 () Int)
(declare-fun call__DRAGON_.ite6 () Int)
(declare-fun call__DRAGON_.ite21 () Int)
(declare-fun call__DRAGON_.ite56 () Int)
(declare-fun call__DRAGON_.ite43 () Int)
(declare-fun call__DRAGON_.ite24 () Int)
(declare-fun param_e10 () Bool)
(declare-fun call__DRAGON_.ite28 () Int)
(declare-fun call__DRAGON_.exclusive () Int)
(declare-fun call__DRAGON_.ite47 () Int)
(declare-fun call__DRAGON_.ite38 () Int)
(declare-fun param_e11 () Bool)
(declare-fun call__DRAGON_.ite45 () Int)
(declare-fun call__DRAGON_.ite39 () Int)
(declare-fun param_init_invalid () Int)
(declare-fun call__DRAGON_.dirty () Int)
(declare-fun call__DRAGON_.g08 () Bool)
(declare-fun call_excludes12.excludes () Bool)
(declare-fun call__DRAGON_.ite31 () Int)
(declare-fun call_Sofar.Sofar () Bool)
(declare-fun call__DRAGON_.ite20 () Int)
(declare-fun call__DRAGON_.ite48 () Int)
(declare-fun call__DRAGON_.ite40 () Int)
(declare-fun call__DRAGON_.flby5 () Int)
(declare-fun call__DRAGON_.flby () Int)
(declare-fun call__DRAGON_.ite9 () Int)
(declare-fun param_e04 () Bool)
(declare-fun call__DRAGON_.ite7 () Int)
(declare-fun shared_dirty () Int)
(declare-fun call__DRAGON_.shared () Int)
(declare-fun call__DRAGON_.g05 () Bool)
(declare-fun erreur () Bool)
(declare-fun call__DRAGON_.ite25 () Int)
(declare-fun call__DRAGON_.ite35 () Int)
(declare-fun call__DRAGON_.ite57 () Int)
(declare-fun call__DRAGON_.g04 () Bool)
(declare-fun call__DRAGON_.invalid () Int)
(declare-fun call__DRAGON_.ite26 () Int)
(declare-fun dirty () Int)
(declare-fun param_e05 () Bool)
(declare-fun call__DRAGON_.ite44 () Int)
(declare-fun call__DRAGON_.ite13 () Int)
(declare-fun call__DRAGON_.ite19 () Int)
(declare-fun call__DRAGON_.ite46 () Int)
(declare-fun call__DRAGON_.ite51 () Int)
(declare-fun call__DRAGON_.ite10 () Int)
(declare-fun call__DRAGON_.ite58 () Int)
(declare-fun call__DRAGON_.ite61 () Int)
(declare-fun param_e08 () Bool)
(declare-fun call__DRAGON_.ite33 () Int)
(declare-fun call__DRAGON_.ite59 () Int)
(declare-fun call__DRAGON_.ite50 () Int)
(declare-fun call__DRAGON_.ite18 () Int)
(declare-fun call__DRAGON_.flby6 () Int)
(declare-fun call__DRAGON_.ite15 () Int)
(declare-fun call__DRAGON_.ite23 () Int)
(declare-fun call__DRAGON_.flby3 () Int)
(declare-fun call__DRAGON_.ite17 () Int)
(declare-fun call__DRAGON_.ite42 () Int)
(declare-fun param_e02 () Bool)
(declare-fun call__DRAGON_.flby2 () Int)
(declare-fun call__DRAGON_.ite34 () Int)
(declare-fun call__DRAGON_.shared_dirty () Int)
(declare-fun shared () Int)
(declare-fun call__DRAGON_.ite36 () Int)
(declare-fun call__DRAGON_.ite55 () Int)
(declare-fun call__DRAGON_.ite2 () Int)
(declare-fun call__DRAGON_.ite8 () Int)
(declare-fun invalid () Int)
(declare-fun call__DRAGON_.ite53 () Int)
(declare-fun param_e07 () Bool)
(declare-fun call__DRAGON_.ite54 () Int)
(declare-fun param_e06 () Bool)
(declare-fun exclusive () Int)
(declare-fun call__DRAGON_.ite60 () Int)
(declare-fun call__DRAGON_.ite30 () Int)
(declare-fun call__DRAGON_.ite5 () Int)
(declare-fun _OK_ () Bool)
(declare-fun call__DRAGON_.mem_init () Int)
(declare-fun call_Sofar.flby () Bool)
(declare-fun call__DRAGON_.g02 () Bool)
(declare-fun call__DRAGON_.ite12 () Int)
(declare-fun param_e09 () Bool)
(declare-fun call__DRAGON_.ite27 () Int)
(declare-fun call__DRAGON_.ite52 () Int)
(declare-fun call__DRAGON_.ite4 () Int)
(declare-fun call__DRAGON_.flby4 () Int)
(define-fun .def_1715 () Bool (= call_Sofar.flby call_Sofar.Sofar))
(define-fun .def_1524 () Bool (not param_e02))
(define-fun .def_1505 () Bool (not param_e01))
(define-fun .def_1613 () Bool (and .def_1505 .def_1524))
(define-fun .def_1564 () Bool (not param_e03))
(define-fun .def_1614 () Bool (and .def_1564 .def_1613))
(define-fun .def_1580 () Bool (not param_e04))
(define-fun .def_1615 () Bool (and .def_1580 .def_1614))
(define-fun .def_1373 () Bool (not param_e05))
(define-fun .def_1616 () Bool (and .def_1373 .def_1615))
(define-fun .def_1357 () Bool (not param_e06))
(define-fun .def_1617 () Bool (and .def_1357 .def_1616))
(define-fun .def_1393 () Bool (not param_e07))
(define-fun .def_1618 () Bool (and .def_1393 .def_1617))
(define-fun .def_1411 () Bool (not param_e08))
(define-fun .def_1619 () Bool (and .def_1411 .def_1618))
(define-fun .def_1253 () Bool (not param_e09))
(define-fun .def_1620 () Bool (and .def_1253 .def_1619))
(define-fun .def_1259 () Bool (not param_e10))
(define-fun .def_1621 () Bool (and .def_1259 .def_1620))
(define-fun .def_1266 () Bool (not param_e11))
(define-fun .def_1622 () Bool (and .def_1266 .def_1621))
(define-fun .def_1273 () Bool (not param_e12))
(define-fun .def_1700 () Bool (and .def_1273 .def_1622))
(define-fun .def_1689 () Bool (and param_e01 .def_1524))
(define-fun .def_1690 () Bool (and .def_1564 .def_1689))
(define-fun .def_1691 () Bool (and .def_1580 .def_1690))
(define-fun .def_1692 () Bool (and .def_1373 .def_1691))
(define-fun .def_1693 () Bool (and .def_1357 .def_1692))
(define-fun .def_1694 () Bool (and .def_1393 .def_1693))
(define-fun .def_1695 () Bool (and .def_1411 .def_1694))
(define-fun .def_1696 () Bool (and .def_1253 .def_1695))
(define-fun .def_1697 () Bool (and .def_1259 .def_1696))
(define-fun .def_1698 () Bool (and .def_1266 .def_1697))
(define-fun .def_1699 () Bool (and .def_1273 .def_1698))
(define-fun .def_1701 () Bool (or .def_1699 .def_1700))
(define-fun .def_1678 () Bool (and .def_1505 param_e02))
(define-fun .def_1679 () Bool (and .def_1564 .def_1678))
(define-fun .def_1680 () Bool (and .def_1580 .def_1679))
(define-fun .def_1681 () Bool (and .def_1373 .def_1680))
(define-fun .def_1682 () Bool (and .def_1357 .def_1681))
(define-fun .def_1683 () Bool (and .def_1393 .def_1682))
(define-fun .def_1684 () Bool (and .def_1411 .def_1683))
(define-fun .def_1685 () Bool (and .def_1253 .def_1684))
(define-fun .def_1686 () Bool (and .def_1259 .def_1685))
(define-fun .def_1687 () Bool (and .def_1266 .def_1686))
(define-fun .def_1688 () Bool (and .def_1273 .def_1687))
(define-fun .def_1702 () Bool (or .def_1688 .def_1701))
(define-fun .def_1668 () Bool (and param_e03 .def_1613))
(define-fun .def_1669 () Bool (and .def_1580 .def_1668))
(define-fun .def_1670 () Bool (and .def_1373 .def_1669))
(define-fun .def_1671 () Bool (and .def_1357 .def_1670))
(define-fun .def_1672 () Bool (and .def_1393 .def_1671))
(define-fun .def_1673 () Bool (and .def_1411 .def_1672))
(define-fun .def_1674 () Bool (and .def_1253 .def_1673))
(define-fun .def_1675 () Bool (and .def_1259 .def_1674))
(define-fun .def_1676 () Bool (and .def_1266 .def_1675))
(define-fun .def_1677 () Bool (and .def_1273 .def_1676))
(define-fun .def_1703 () Bool (or .def_1677 .def_1702))
(define-fun .def_1659 () Bool (and param_e04 .def_1614))
(define-fun .def_1660 () Bool (and .def_1373 .def_1659))
(define-fun .def_1661 () Bool (and .def_1357 .def_1660))
(define-fun .def_1662 () Bool (and .def_1393 .def_1661))
(define-fun .def_1663 () Bool (and .def_1411 .def_1662))
(define-fun .def_1664 () Bool (and .def_1253 .def_1663))
(define-fun .def_1665 () Bool (and .def_1259 .def_1664))
(define-fun .def_1666 () Bool (and .def_1266 .def_1665))
(define-fun .def_1667 () Bool (and .def_1273 .def_1666))
(define-fun .def_1704 () Bool (or .def_1667 .def_1703))
(define-fun .def_1651 () Bool (and param_e05 .def_1615))
(define-fun .def_1652 () Bool (and .def_1357 .def_1651))
(define-fun .def_1653 () Bool (and .def_1393 .def_1652))
(define-fun .def_1654 () Bool (and .def_1411 .def_1653))
(define-fun .def_1655 () Bool (and .def_1253 .def_1654))
(define-fun .def_1656 () Bool (and .def_1259 .def_1655))
(define-fun .def_1657 () Bool (and .def_1266 .def_1656))
(define-fun .def_1658 () Bool (and .def_1273 .def_1657))
(define-fun .def_1705 () Bool (or .def_1658 .def_1704))
(define-fun .def_1644 () Bool (and param_e06 .def_1616))
(define-fun .def_1645 () Bool (and .def_1393 .def_1644))
(define-fun .def_1646 () Bool (and .def_1411 .def_1645))
(define-fun .def_1647 () Bool (and .def_1253 .def_1646))
(define-fun .def_1648 () Bool (and .def_1259 .def_1647))
(define-fun .def_1649 () Bool (and .def_1266 .def_1648))
(define-fun .def_1650 () Bool (and .def_1273 .def_1649))
(define-fun .def_1706 () Bool (or .def_1650 .def_1705))
(define-fun .def_1638 () Bool (and param_e07 .def_1617))
(define-fun .def_1639 () Bool (and .def_1411 .def_1638))
(define-fun .def_1640 () Bool (and .def_1253 .def_1639))
(define-fun .def_1641 () Bool (and .def_1259 .def_1640))
(define-fun .def_1642 () Bool (and .def_1266 .def_1641))
(define-fun .def_1643 () Bool (and .def_1273 .def_1642))
(define-fun .def_1707 () Bool (or .def_1643 .def_1706))
(define-fun .def_1633 () Bool (and param_e08 .def_1618))
(define-fun .def_1634 () Bool (and .def_1253 .def_1633))
(define-fun .def_1635 () Bool (and .def_1259 .def_1634))
(define-fun .def_1636 () Bool (and .def_1266 .def_1635))
(define-fun .def_1637 () Bool (and .def_1273 .def_1636))
(define-fun .def_1708 () Bool (or .def_1637 .def_1707))
(define-fun .def_1629 () Bool (and param_e09 .def_1619))
(define-fun .def_1630 () Bool (and .def_1259 .def_1629))
(define-fun .def_1631 () Bool (and .def_1266 .def_1630))
(define-fun .def_1632 () Bool (and .def_1273 .def_1631))
(define-fun .def_1709 () Bool (or .def_1632 .def_1708))
(define-fun .def_1626 () Bool (and param_e10 .def_1620))
(define-fun .def_1627 () Bool (and .def_1266 .def_1626))
(define-fun .def_1628 () Bool (and .def_1273 .def_1627))
(define-fun .def_1710 () Bool (or .def_1628 .def_1709))
(define-fun .def_1624 () Bool (and param_e11 .def_1621))
(define-fun .def_1625 () Bool (and .def_1273 .def_1624))
(define-fun .def_1711 () Bool (or .def_1625 .def_1710))
(define-fun .def_1623 () Bool (and param_e12 .def_1622))
(define-fun .def_1712 () Bool (or .def_1623 .def_1711))
(define-fun .def_1713 () Bool (= call_excludes12.excludes .def_1712))
(define-fun .def_1611 () Bool (= call__DRAGON_.mem_init call__DRAGON_.flby))
(define-fun .def_1609 () Bool (= call__DRAGON_.erreur call__DRAGON_.ite))
(define-fun .def_1607 () Bool (= call__DRAGON_.flby6 call__DRAGON_.invalid))
(define-fun .def_1605 () Bool (= call__DRAGON_.flby5 call__DRAGON_.dirty))
(define-fun .def_1603 () Bool (= call__DRAGON_.flby4 call__DRAGON_.shared_dirty))
(define-fun .def_1601 () Bool (= call__DRAGON_.flby3 call__DRAGON_.shared))
(define-fun .def_1598 () Bool (= call__DRAGON_.flby2 call__DRAGON_.exclusive))
(define-fun .def_1593 () Bool (<= 2 call__DRAGON_.exclusive))
(define-fun .def_1595 () Bool (not .def_1593))
(define-fun .def_1596 () Bool (or call__DRAGON_.ite .def_1595))
(define-fun .def_1592 () Bool (not call__DRAGON_.ite))
(define-fun .def_1594 () Bool (or .def_1592 .def_1593))
(define-fun .def_1597 () Bool (and .def_1594 .def_1596))
(define-fun .def_1599 () Bool (and .def_1597 .def_1598))
(define-fun .def_1587 () Bool (= call__DRAGON_.ite42 call__DRAGON_.ite43))
(define-fun .def_1588 () Bool (or param_e04 .def_1587))
(define-fun .def_1584 () Bool (= call__DRAGON_.ite43 call__DRAGON_.ite34))
(define-fun .def_1585 () Bool (or .def_1580 .def_1584))
(define-fun .def_1579 () Bool (= call__DRAGON_.ite23 call__DRAGON_.ite30))
(define-fun .def_1581 () Bool (or .def_1579 .def_1580))
(define-fun .def_1576 () Bool (= call__DRAGON_.ite29 call__DRAGON_.ite30))
(define-fun .def_1578 () Bool (or .def_1576 param_e04))
(define-fun .def_1582 () Bool (and .def_1578 .def_1581))
(define-fun .def_1586 () Bool (and .def_1582 .def_1585))
(define-fun .def_1589 () Bool (and .def_1586 .def_1588))
(define-fun .def_1572 () Bool (= call__DRAGON_.ite44 call__DRAGON_.ite43))
(define-fun .def_1573 () Bool (or param_e03 .def_1572))
(define-fun .def_1568 () Bool (= call__DRAGON_.ite44 call__DRAGON_.ite33))
(define-fun .def_1569 () Bool (or .def_1564 .def_1568))
(define-fun .def_1563 () Bool (= call__DRAGON_.ite9 call__DRAGON_.ite4))
(define-fun .def_1565 () Bool (or .def_1563 .def_1564))
(define-fun .def_1559 () Bool (= call__DRAGON_.ite8 call__DRAGON_.ite9))
(define-fun .def_1561 () Bool (or .def_1559 param_e03))
(define-fun .def_1566 () Bool (and .def_1561 .def_1565))
(define-fun .def_1570 () Bool (and .def_1566 .def_1569))
(define-fun .def_1574 () Bool (and .def_1570 .def_1573))
(define-fun .def_1555 () Bool (= call__DRAGON_.ite31 call__DRAGON_.ite30))
(define-fun .def_1556 () Bool (or param_e02 .def_1555))
(define-fun .def_1551 () Bool (= call__DRAGON_.ite22 call__DRAGON_.ite31))
(define-fun .def_1552 () Bool (or .def_1524 .def_1551))
(define-fun .def_1546 () Bool (= call__DRAGON_.ite20 call__DRAGON_.ite21))
(define-fun .def_1547 () Bool (or param_e02 .def_1546))
(define-fun .def_1543 () Bool (= call__DRAGON_.ite12 call__DRAGON_.ite21))
(define-fun .def_1544 () Bool (or .def_1524 .def_1543))
(define-fun .def_1538 () Bool (= call__DRAGON_.ite10 call__DRAGON_.ite9))
(define-fun .def_1539 () Bool (or param_e02 .def_1538))
(define-fun .def_1534 () Bool (= call__DRAGON_.ite3 call__DRAGON_.ite10))
(define-fun .def_1535 () Bool (or .def_1524 .def_1534))
(define-fun .def_1531 () Bool (= call__DRAGON_.ite59 call__DRAGON_.ite60))
(define-fun .def_1532 () Bool (or param_e02 .def_1531))
(define-fun .def_1528 () Bool (= call__DRAGON_.ite60 call__DRAGON_.ite47))
(define-fun .def_1529 () Bool (or .def_1524 .def_1528))
(define-fun .def_1523 () Bool (= call__DRAGON_.ite32 call__DRAGON_.ite45))
(define-fun .def_1525 () Bool (or .def_1523 .def_1524))
(define-fun .def_1520 () Bool (= call__DRAGON_.ite45 call__DRAGON_.ite44))
(define-fun .def_1522 () Bool (or .def_1520 param_e02))
(define-fun .def_1526 () Bool (and .def_1522 .def_1525))
(define-fun .def_1530 () Bool (and .def_1526 .def_1529))
(define-fun .def_1533 () Bool (and .def_1530 .def_1532))
(define-fun .def_1536 () Bool (and .def_1533 .def_1535))
(define-fun .def_1540 () Bool (and .def_1536 .def_1539))
(define-fun .def_1545 () Bool (and .def_1540 .def_1544))
(define-fun .def_1548 () Bool (and .def_1545 .def_1547))
(define-fun .def_1553 () Bool (and .def_1548 .def_1552))
(define-fun .def_1557 () Bool (and .def_1553 .def_1556))
(define-fun .def_1514 () Bool (= call__DRAGON_.ite11 call__DRAGON_.ite10))
(define-fun .def_1515 () Bool (or param_e01 .def_1514))
(define-fun .def_1510 () Bool (= call__DRAGON_.ite2 call__DRAGON_.ite11))
(define-fun .def_1511 () Bool (or .def_1505 .def_1510))
(define-fun .def_1504 () Bool (= call__DRAGON_.ite61 call__DRAGON_.ite46))
(define-fun .def_1506 () Bool (or .def_1504 .def_1505))
(define-fun .def_1500 () Bool (= call__DRAGON_.ite61 call__DRAGON_.ite60))
(define-fun .def_1502 () Bool (or .def_1500 param_e01))
(define-fun .def_1507 () Bool (and .def_1502 .def_1506))
(define-fun .def_1512 () Bool (and .def_1507 .def_1511))
(define-fun .def_1516 () Bool (and .def_1512 .def_1515))
(define-fun .def_1494 () Bool (= call__DRAGON_.ite55 call__DRAGON_.ite52))
(define-fun .def_1495 () Bool (or .def_1266 .def_1494))
(define-fun .def_1491 () Bool (= call__DRAGON_.ite54 call__DRAGON_.ite55))
(define-fun .def_1492 () Bool (or param_e11 .def_1491))
(define-fun .def_1496 () Bool (and .def_1492 .def_1495))
(define-fun .def_1487 () Bool (= call__DRAGON_.ite56 call__DRAGON_.ite51))
(define-fun .def_1488 () Bool (or .def_1259 .def_1487))
(define-fun .def_1484 () Bool (= call__DRAGON_.ite56 call__DRAGON_.ite55))
(define-fun .def_1485 () Bool (or param_e10 .def_1484))
(define-fun .def_1489 () Bool (and .def_1485 .def_1488))
(define-fun .def_1481 () Bool (= env call_Sofar.Sofar))
(define-fun .def_1476 () Bool (= call__DRAGON_.ite57 call__DRAGON_.ite50))
(define-fun .def_1477 () Bool (or .def_1253 .def_1476))
(define-fun .def_1473 () Bool (= call__DRAGON_.ite57 call__DRAGON_.ite56))
(define-fun .def_1474 () Bool (or param_e09 .def_1473))
(define-fun .def_1478 () Bool (and .def_1474 .def_1477))
(define-fun .def_1470 () Bool (= erreur call__DRAGON_.erreur))
(define-fun .def_1466 () Bool (= invalid call__DRAGON_.invalid))
(define-fun .def_1462 () Bool (= dirty call__DRAGON_.dirty))
(define-fun .def_1459 () Bool (= shared_dirty call__DRAGON_.shared_dirty))
(define-fun .def_1455 () Bool (= shared call__DRAGON_.shared))
(define-fun .def_1451 () Bool (= exclusive call__DRAGON_.exclusive))
(define-fun .def_1445 () Bool (<= 0 dirty))
(define-fun .def_1443 () Bool (not env))
(define-fun .def_1446 () Bool (or .def_1443 .def_1445))
(define-fun .def_1447 () Bool (= _OK_ .def_1446))
(define-fun .def_1437 () Bool (= call__DRAGON_.ite39 call__DRAGON_.ite40))
(define-fun .def_1438 () Bool (or param_e08 .def_1437))
(define-fun .def_1434 () Bool (= call__DRAGON_.ite37 call__DRAGON_.ite40))
(define-fun .def_1435 () Bool (or .def_1411 .def_1434))
(define-fun .def_1431 () Bool (= call__DRAGON_.ite27 call__DRAGON_.ite28))
(define-fun .def_1432 () Bool (or param_e08 .def_1431))
(define-fun .def_1428 () Bool (= call__DRAGON_.ite25 call__DRAGON_.ite28))
(define-fun .def_1429 () Bool (or .def_1411 .def_1428))
(define-fun .def_1425 () Bool (= call__DRAGON_.ite17 call__DRAGON_.ite18))
(define-fun .def_1426 () Bool (or param_e08 .def_1425))
(define-fun .def_1422 () Bool (= call__DRAGON_.ite18 call__DRAGON_.ite15))
(define-fun .def_1423 () Bool (or .def_1411 .def_1422))
(define-fun .def_1418 () Bool (= call__DRAGON_.ite7 call__DRAGON_.ite8))
(define-fun .def_1419 () Bool (or param_e08 .def_1418))
(define-fun .def_1415 () Bool (= call__DRAGON_.ite5 call__DRAGON_.ite8))
(define-fun .def_1416 () Bool (or .def_1411 .def_1415))
(define-fun .def_1410 () Bool (= call__DRAGON_.ite58 call__DRAGON_.ite49))
(define-fun .def_1412 () Bool (or .def_1410 .def_1411))
(define-fun .def_1406 () Bool (= call__DRAGON_.ite58 call__DRAGON_.ite57))
(define-fun .def_1408 () Bool (or .def_1406 param_e08))
(define-fun .def_1413 () Bool (and .def_1408 .def_1412))
(define-fun .def_1417 () Bool (and .def_1413 .def_1416))
(define-fun .def_1420 () Bool (and .def_1417 .def_1419))
(define-fun .def_1424 () Bool (and .def_1420 .def_1423))
(define-fun .def_1427 () Bool (and .def_1424 .def_1426))
(define-fun .def_1430 () Bool (and .def_1427 .def_1429))
(define-fun .def_1433 () Bool (and .def_1430 .def_1432))
(define-fun .def_1436 () Bool (and .def_1433 .def_1435))
(define-fun .def_1439 () Bool (and .def_1436 .def_1438))
(define-fun .def_1401 () Bool (= call__DRAGON_.ite41 call__DRAGON_.ite40))
(define-fun .def_1402 () Bool (or param_e07 .def_1401))
(define-fun .def_1397 () Bool (= call__DRAGON_.ite41 call__DRAGON_.ite36))
(define-fun .def_1398 () Bool (or .def_1393 .def_1397))
(define-fun .def_1392 () Bool (= call__DRAGON_.ite59 call__DRAGON_.ite48))
(define-fun .def_1394 () Bool (or .def_1392 .def_1393))
(define-fun .def_1388 () Bool (= call__DRAGON_.ite58 call__DRAGON_.ite59))
(define-fun .def_1390 () Bool (or .def_1388 param_e07))
(define-fun .def_1395 () Bool (and .def_1390 .def_1394))
(define-fun .def_1399 () Bool (and .def_1395 .def_1398))
(define-fun .def_1403 () Bool (and .def_1399 .def_1402))
(define-fun .def_1382 () Bool (= call__DRAGON_.ite42 call__DRAGON_.ite41))
(define-fun .def_1383 () Bool (or param_e05 .def_1382))
(define-fun .def_1378 () Bool (= call__DRAGON_.ite35 call__DRAGON_.ite42))
(define-fun .def_1379 () Bool (or .def_1373 .def_1378))
(define-fun .def_1372 () Bool (= call__DRAGON_.ite13 call__DRAGON_.ite20))
(define-fun .def_1374 () Bool (or .def_1372 .def_1373))
(define-fun .def_1369 () Bool (= call__DRAGON_.ite19 call__DRAGON_.ite20))
(define-fun .def_1371 () Bool (or .def_1369 param_e05))
(define-fun .def_1375 () Bool (and .def_1371 .def_1374))
(define-fun .def_1380 () Bool (and .def_1375 .def_1379))
(define-fun .def_1384 () Bool (and .def_1380 .def_1383))
(define-fun .def_1365 () Bool (= call__DRAGON_.ite29 call__DRAGON_.ite28))
(define-fun .def_1366 () Bool (or param_e06 .def_1365))
(define-fun .def_1361 () Bool (= call__DRAGON_.ite24 call__DRAGON_.ite29))
(define-fun .def_1362 () Bool (or .def_1357 .def_1361))
(define-fun .def_1356 () Bool (= call__DRAGON_.ite19 call__DRAGON_.ite14))
(define-fun .def_1358 () Bool (or .def_1356 .def_1357))
(define-fun .def_1352 () Bool (= call__DRAGON_.ite19 call__DRAGON_.ite18))
(define-fun .def_1354 () Bool (or .def_1352 param_e06))
(define-fun .def_1359 () Bool (and .def_1354 .def_1358))
(define-fun .def_1363 () Bool (and .def_1359 .def_1362))
(define-fun .def_1367 () Bool (and .def_1363 .def_1366))
(define-fun .def_1385 () Bool (and .def_1367 .def_1384))
(define-fun .def_1404 () Bool (and .def_1385 .def_1403))
(define-fun .def_1440 () Bool (and .def_1404 .def_1439))
(define-fun .def_1448 () Bool (and .def_1440 .def_1447))
(define-fun .def_1452 () Bool (and .def_1448 .def_1451))
(define-fun .def_1456 () Bool (and .def_1452 .def_1455))
(define-fun .def_1460 () Bool (and .def_1456 .def_1459))
(define-fun .def_1463 () Bool (and .def_1460 .def_1462))
(define-fun .def_1467 () Bool (and .def_1463 .def_1466))
(define-fun .def_1471 () Bool (and .def_1467 .def_1470))
(define-fun .def_1479 () Bool (and .def_1471 .def_1478))
(define-fun .def_1482 () Bool (and .def_1479 .def_1481))
(define-fun .def_1490 () Bool (and .def_1482 .def_1489))
(define-fun .def_1497 () Bool (and .def_1490 .def_1496))
(define-fun .def_1517 () Bool (and .def_1497 .def_1516))
(define-fun .def_1558 () Bool (and .def_1517 .def_1557))
(define-fun .def_1575 () Bool (and .def_1558 .def_1574))
(define-fun .def_1590 () Bool (and .def_1575 .def_1589))
(define-fun .def_1600 () Bool (and .def_1590 .def_1599))
(define-fun .def_1602 () Bool (and .def_1600 .def_1601))
(define-fun .def_1604 () Bool (and .def_1602 .def_1603))
(define-fun .def_1606 () Bool (and .def_1604 .def_1605))
(define-fun .def_1608 () Bool (and .def_1606 .def_1607))
(define-fun .def_1610 () Bool (and .def_1608 .def_1609))
(define-fun .def_1612 () Bool (and .def_1610 .def_1611))
(define-fun .def_1714 () Bool (and .def_1612 .def_1713))
(define-fun .def_1716 () Bool (and .def_1714 .def_1715))
(define-fun .def_1343 () Bool (<= param_init_invalid 0))
(define-fun .def_1344 () Bool (not .def_1343))
(define-fun .def_1346 () Bool (and .def_1344 call_excludes12.excludes))
(define-fun .def_1348 () Bool (= .def_1346 call_Sofar.flby))
(define-fun .def_1341 () Bool (= call__DRAGON_.flby4 0))
(define-fun .def_1338 () Bool (= call__DRAGON_.flby3 0))
(define-fun .def_1335 () Bool (= call__DRAGON_.flby2 0))
(define-fun .def_1332 () Bool (= param_init_invalid call__DRAGON_.flby))
(define-fun .def_1326 () Bool (= call__DRAGON_.ite37 0))
(define-fun .def_1319 () Bool (not call__DRAGON_.g08))
(define-fun .def_1327 () Bool (or .def_1319 .def_1326))
(define-fun .def_1322 () Bool (= call__DRAGON_.ite5 0))
(define-fun .def_1323 () Bool (or .def_1319 .def_1322))
(define-fun .def_1317 () Bool (= call__DRAGON_.ite25 1))
(define-fun .def_1320 () Bool (or .def_1317 .def_1319))
(define-fun .def_1324 () Bool (and .def_1320 .def_1323))
(define-fun .def_1328 () Bool (and .def_1324 .def_1327))
(define-fun .def_1313 () Bool (= call__DRAGON_.ite24 1))
(define-fun .def_1311 () Bool (not call__DRAGON_.g06))
(define-fun .def_1314 () Bool (or .def_1311 .def_1313))
(define-fun .def_1307 () Bool (= call__DRAGON_.ite13 0))
(define-fun .def_1305 () Bool (not call__DRAGON_.g05))
(define-fun .def_1308 () Bool (or .def_1305 .def_1307))
(define-fun .def_1301 () Bool (= call__DRAGON_.ite23 0))
(define-fun .def_1299 () Bool (not call__DRAGON_.g04))
(define-fun .def_1302 () Bool (or .def_1299 .def_1301))
(define-fun .def_1294 () Bool (= call__DRAGON_.ite3 0))
(define-fun .def_1291 () Bool (not call__DRAGON_.g02))
(define-fun .def_1295 () Bool (or .def_1291 .def_1294))
(define-fun .def_1289 () Bool (= call__DRAGON_.ite32 0))
(define-fun .def_1292 () Bool (or .def_1289 .def_1291))
(define-fun .def_1296 () Bool (and .def_1292 .def_1295))
(define-fun .def_1286 () Bool (= call__DRAGON_.flby6 call__DRAGON_.mem_init))
(define-fun .def_1282 () Bool (= call__DRAGON_.flby5 0))
(define-fun .def_1277 () Bool (= call__DRAGON_.ite53 call__DRAGON_.ite54))
(define-fun .def_1278 () Bool (or .def_1273 .def_1277))
(define-fun .def_1271 () Bool (= call__DRAGON_.ite6 call__DRAGON_.ite7))
(define-fun .def_1274 () Bool (or .def_1271 .def_1273))
(define-fun .def_1279 () Bool (and .def_1274 .def_1278))
(define-fun .def_1264 () Bool (= call__DRAGON_.ite26 call__DRAGON_.ite27))
(define-fun .def_1267 () Bool (or .def_1264 .def_1266))
(define-fun .def_1257 () Bool (= call__DRAGON_.ite16 call__DRAGON_.ite17))
(define-fun .def_1260 () Bool (or .def_1257 .def_1259))
(define-fun .def_1251 () Bool (= call__DRAGON_.ite38 call__DRAGON_.ite39))
(define-fun .def_1254 () Bool (or .def_1251 .def_1253))
(define-fun .def_1261 () Bool (and .def_1254 .def_1260))
(define-fun .def_1268 () Bool (and .def_1261 .def_1267))
(define-fun .def_1280 () Bool (and .def_1268 .def_1279))
(define-fun .def_1283 () Bool (and .def_1280 .def_1282))
(define-fun .def_1287 () Bool (and .def_1283 .def_1286))
(define-fun .def_1297 () Bool (and .def_1287 .def_1296))
(define-fun .def_1303 () Bool (and .def_1297 .def_1302))
(define-fun .def_1309 () Bool (and .def_1303 .def_1308))
(define-fun .def_1315 () Bool (and .def_1309 .def_1314))
(define-fun .def_1329 () Bool (and .def_1315 .def_1328))
(define-fun .def_1333 () Bool (and .def_1329 .def_1332))
(define-fun .def_1336 () Bool (and .def_1333 .def_1335))
(define-fun .def_1339 () Bool (and .def_1336 .def_1338))
(define-fun .def_1342 () Bool (and .def_1339 .def_1341))
(define-fun .def_1349 () Bool (and .def_1342 .def_1348))
(define-fun .def_1717 () Bool (and .def_1349 .def_1716))
(assert .def_1717)
